Problem:    
Rows:       163
Columns:    57 (42 integer, 42 binary)
Non-zeros:  620
Status:     INTEGER OPTIMAL
Objective:  value = 108.890732 (MINimum)

   No.   Row name        Activity     Lower bound   Upper bound
------ ------------    ------------- ------------- -------------
     1 r.5                   1108.89             0               
     2 r.6                  -909.048       -964.49               
     3 r.7                   108.891             0               
     4 r.8                   90.9516       -929.83               
     5 r.9                   108.891             0               
     6 r.10                  99.4543      -967.145               
     7 r.11                  1108.89             0               
     8 r.12                 -917.558      -949.162               
     9 r.13                  1108.89             0               
    10 r.14                 -959.263      -972.908               
    11 r.15                  108.891             0               
    12 r.16                  90.9516      -961.815               
    13 r.17                  108.891             0               
    14 r.18                  36.4589      -994.819               
    15 r.19                  1108.89             0               
    16 r.20                 -971.902       -994.91               
    17 r.21                  1108.89             0               
    18 r.22                 -944.559      -985.296               
    19 r.23                  108.891             0               
    20 r.24                 -964.832      -978.476               
    21 r.25                  1108.89             0               
    22 r.26                 -996.066      -996.066               
    23 r.27                  108.891             0               
    24 r.28                 -968.082      -968.082               
    25 r.29                  1108.89             0               
    26 r.30                 -891.109      -982.061               
    27 r.31                  108.891             0               
    28 r.32                  108.891       -976.58               
    29 r.33                        1             1             = 
    30 r.34                        1             1             = 
    31 r.35                        1             1             = 
    32 r.36                        1             1             = 
    33 r.37                        1             1             = 
    34 r.38                        1             1             = 
    35 r.39                        1             1             = 
    36 r.40                     1001             2               
    37 r.41                    -1001         -1001               
    38 r.42                   1008.5      -967.145               
    39 r.43                     1001             2               
    40 r.44                    -1001         -1001               
    41 r.45                  1991.49      -949.162               
    42 r.46                        2             2               
    43 r.47                       -2         -1001               
    44 r.48                 -50.2149      -972.908               
    45 r.49                     1000             2               
    46 r.50                    -1000         -1001               
    47 r.51                     2000      -961.815               
    48 r.52                 -940.652       -964.49               
    49 r.53                   59.348       -929.83               
    50 r.54                 -940.652       -964.49               
    51 r.55                   59.348       -929.83               
    52 r.56                  -964.49       -964.49               
    53 r.57                  35.5105       -929.83               
    54 r.58                  55.7832       -964.49               
    55 r.59                  1055.78       -929.83               
    56 r.60                 -982.061      -982.061               
    57 r.61                  17.9392       -976.58               
    58 r.62                 -982.061      -982.061               
    59 r.63                  17.9392       -976.58               
    60 r.64                     1001             2               
    61 r.65                    -1001         -1001               
    62 r.66                     3000       35.5105               
    63 r.67                     1001             2               
    64 r.68                    -1001         -1001               
    65 r.69                     2000       70.1699               
    66 r.70                     1001             2               
    67 r.71                    -1001         -1001               
    68 r.72                  1949.79      -972.908               
    69 r.73                     1001             2               
    70 r.74                    -1001         -1001               
    71 r.75                     2000      -961.815               
    72 r.76                  67.8507      -967.145               
    73 r.77                 -949.162      -949.162               
    74 r.78                  67.8507      -967.145               
    75 r.79                 -949.162      -949.162               
    76 r.80                     1001             2               
    77 r.81                    -1001         -1001               
    78 r.82                  1964.49      -985.296               
    79 r.83                     1001             2               
    80 r.84                    -1001         -1001               
    81 r.85                  944.217      -978.476               
    82 r.86                  85.8098      -967.145               
    83 r.87                 -931.203      -949.162               
    84 r.88                  1074.55      -967.145               
    85 r.89                  57.5356      -949.162               
    86 r.90                 -982.061      -982.061               
    87 r.91                  17.9392       -976.58               
    88 r.92                 -982.061      -982.061               
    89 r.93                  17.9392       -976.58               
    90 r.94                        2             2               
    91 r.95                       -2         -1001               
    92 r.96                  50.2149       35.5105               
    93 r.97                     1000             2               
    94 r.98                    -1000         -1001               
    95 r.99                     2000       70.1699               
    96 r.100                    1001             2               
    97 r.101                   -1001         -1001               
    98 r.102                 2058.72        32.855               
    99 r.103                    1001             2               
   100 r.104                   -1001         -1001               
   101 r.105                 1991.49       50.8383               
   102 r.106                    1001             2               
   103 r.107                   -1001         -1001               
   104 r.108                 995.722      -994.819               
   105 r.109                    1001             2               
   106 r.110                   -1001         -1001               
   107 r.111                 1937.15       -994.91               
   108 r.112                       2             2               
   109 r.113                      -2         -1001               
   110 r.114                -985.296      -985.296               
   111 r.115                    1000             2               
   112 r.116                   -1000         -1001               
   113 r.117                 944.217      -978.476               
   114 r.118                -972.908      -972.908               
   115 r.119                 77.3071      -961.815               
   116 r.120                 15.8304      -972.908               
   117 r.121                 1066.05      -961.815               
   118 r.122                -931.846      -982.061               
   119 r.123                 68.1541       -976.58               
   120 r.124                -982.061      -982.061               
   121 r.125                 17.9392       -976.58               
   122 r.126                    1001             2               
   123 r.127                   -1001         -1001               
   124 r.128                 3009.13       27.0922               
   125 r.129                    1001             2               
   126 r.130                   -1001         -1001               
   127 r.131                 2059.35       38.1849               
   128 r.132                    1001             2               
   129 r.133                   -1001         -1001               
   130 r.134                 2023.84      -985.296               
   131 r.135                    1001             2               
   132 r.136                   -1001         -1001               
   133 r.137                 1003.56      -978.476               
   134 r.138                 22.8144      -994.819               
   135 r.139                -985.547       -994.91               
   136 r.140                 1011.55      -994.819               
   137 r.141                 3.19152       -994.91               
   138 r.142                    1001             2               
   139 r.143                   -1001         -1001               
   140 r.144                 2044.01        32.855               
   141 r.145                    1001             2               
   142 r.146                   -1001         -1001               
   143 r.147                 3047.27       50.8383               
   144 r.148                       2             2               
   145 r.149                      -2         -1001               
   146 r.150                 985.296       27.0922               
   147 r.151                    1000             2               
   148 r.152                   -1000         -1001               
   149 r.153                 3055.78       38.1849               
   150 r.154                    1001             2               
   151 r.155                   -1001         -1001               
   152 r.156                 1981.02        5.1814               
   153 r.157                    1001             2               
   154 r.158                   -1001         -1001               
   155 r.159                 2992.93       5.09036               
   156 r.160                -958.203      -985.296               
   157 r.161                -978.476      -978.476               
   158 r.162                 30.5348      -985.296               
   159 r.163                 10.2622      -978.476               
   160 r.164                 -946.55      -982.061               
   161 r.165                 53.4497       -976.58               
   162 r.166                 73.7223      -982.061               
   163 r.167                 1073.72       -976.58               

   No. Column name       Activity     Lower bound   Upper bound
------ ------------    ------------- ------------- -------------
     1 tt                    108.891             0               
     2 s_1_1        *              1             0             1 
     3 t_1_1                 17.9392             0               
     4 s_1_7        *              1             0             1 
     5 s_2_1        *              0             0             1 
     6 t_2_1                 17.9392             0               
     7 s_2_7        *              0             0             1 
     8 s_1_2        *              0             0             1 
     9 t_1_2                 17.9392             0               
    10 s_2_2        *              1             0             1 
    11 t_2_2                 17.9392             0               
    12 s_1_3        *              1             0             1 
    13 t_1_3                 68.1541             0               
    14 s_2_3        *              0             0             1 
    15 t_2_3                 17.9392             0               
    16 s_1_4        *              0             0             1 
    17 t_1_4                 77.2872             0               
    18 s_2_4        *              1             0             1 
    19 t_2_4                 77.2872             0               
    20 s_1_5        *              1             0             1 
    21 t_1_5                 53.4497             0               
    22 s_2_5        *              0             0             1 
    23 t_2_5                 1073.72             0               
    24 s_1_6        *              1             0             1 
    25 t_1_6                 95.2463             0               
    26 s_2_6        *              0             0             1 
    27 t_2_6                 1083.98             0               
    28 t_1_7                       0             0               
    29 t_2_7                       0             0               
    30 r_1_1_2      *              1             0             1 
    31 u_1_1_2      *              1             0             1 
    32 r_2_1_2      *              1             0             1 
    33 u_2_1_2      *              0             0             1 
    34 r_1_1_3      *              0             0             1 
    35 u_1_1_3      *              0             0             1 
    36 r_2_1_3      *              1             0             1 
    37 u_2_1_3      *              0             0             1 
    38 r_1_2_3      *              1             0             1 
    39 u_1_2_3      *              0             0             1 
    40 r_2_2_3      *              1             0             1 
    41 u_2_2_3      *              0             0             1 
    42 r_1_2_5      *              1             0             1 
    43 u_1_2_5      *              0             0             1 
    44 r_2_2_5      *              1             0             1 
    45 u_2_2_5      *              0             0             1 
    46 r_1_3_4      *              1             0             1 
    47 u_1_3_4      *              1             0             1 
    48 r_2_3_4      *              1             0             1 
    49 u_2_3_4      *              0             0             1 
    50 r_1_3_5      *              0             0             1 
    51 u_1_3_5      *              1             0             1 
    52 r_2_3_5      *              1             0             1 
    53 u_2_3_5      *              0             0             1 
    54 r_1_4_5      *              1             0             1 
    55 u_1_4_5      *              0             0             1 
    56 r_2_4_5      *              1             0             1 
    57 u_2_4_5      *              0             0             1 

Integer feasibility conditions:

KKT.PE: max.abs.err = 4.55e-13 on row 62
        max.rel.err = 1.11e-16 on row 8
        High quality

KKT.PB: max.abs.err = 1.14e-13 on row 24
        max.rel.err = 1.17e-16 on row 24
        High quality

End of output
